; chc-comp19-benchmarks/./lia-lin-arr/chc-lia-lin-arr-0055_000.smt2
(set-logic HORN)

(declare-fun |main@entry| ( Int ) Bool)
(declare-fun |main@bb14.i| ( Int Int (Array Int Int) Int Int (Array Int Int) ) Bool)
(declare-fun |main@bb29.i| ( Int (Array Int Int) Int Int (Array Int Int) Int ) Bool)
(declare-fun |main@bb52.i| ( Int (Array Int Int) Int Int ) Bool)

(assert
  (forall ( (A Int) ) 
    (=>
      (and
        true
      )
      (main@entry A)
    )
  )
)
(assert
  (forall ( (A Int) (B Int) (C Bool) (D Int) (E Int) (F Int) (G Int) (H Int) (I Bool) (J Bool) (K (Array Int Int)) (L (Array Int Int)) (M Int) (N (Array Int Int)) (O Int) (P (Array Int Int)) ) 
    (=>
      (and
        (main@entry A)
        (and (= G D)
     (= E D)
     (= B A)
     (not (<= H 0))
     (not (<= F 0))
     (or (not I) (not J) (= N K))
     (or (not I) (not J) (= K L))
     (or (not I) (not J) (= O M))
     (or (not I) (not J) (= M 0))
     (or (not I) (and I J))
     (= I true)
     (= C true)
     (= C (not (<= D 0))))
      )
      (main@bb14.i O F N H D P)
    )
  )
)
(assert
  (forall ( (A Int) (B Int) (C (Array Int Int)) (D Int) (E Int) (F (Array Int Int)) (G Bool) (H Bool) (I Bool) (J Int) (K Int) (L (Array Int Int)) (M Int) (N Bool) (O (Array Int Int)) (P Int) (Q (Array Int Int)) (R Int) ) 
    (=>
      (and
        (main@bb14.i A B C D E F)
        (and (or (not H) (<= B 0) (not (<= K 0)))
     (or (not H) (not N) (= Q O))
     (or (not H) (not N) (= O L))
     (or (not H) (not N) (= P M))
     (or (not H) (not N) (= R P))
     (or G (not H) (not I))
     (or (not N) (and H N))
     (or (not H) (= L (store C K 42)))
     (or (not H) (= M (+ 1 A)))
     (or (not H) (= K (+ B J)))
     (or (not H) (= J A))
     (or (not H) (not (<= B 0)))
     (or (not H) (and H I))
     (= N true)
     (= G (not (<= E A))))
      )
      (main@bb14.i R B Q D E F)
    )
  )
)
(assert
  (forall ( (A Int) (B Int) (C (Array Int Int)) (D Int) (E Int) (F (Array Int Int)) (G Bool) (H Bool) (I Bool) (J (Array Int Int)) (K Int) (L (Array Int Int)) (M Int) ) 
    (=>
      (and
        (main@bb14.i A B C D E F)
        (and (or (not I) (not H) (= L J))
     (or (not I) (not H) (= J F))
     (or (not I) (not H) (= K 0))
     (or (not I) (not H) (= M K))
     (or (not G) (not I) (not H))
     (or (not H) (and I H))
     (= H true)
     (= G (not (<= E A))))
      )
      (main@bb29.i B C M D L E)
    )
  )
)
(assert
  (forall ( (A Int) (B (Array Int Int)) (C Int) (D Int) (E (Array Int Int)) (F Int) (G Bool) (H Bool) (I Bool) (J Int) (K Int) (L Int) (M Int) (N Int) (O Int) (P (Array Int Int)) (Q Int) (R Bool) (S (Array Int Int)) (T Int) (U (Array Int Int)) (V Int) ) 
    (=>
      (and
        (main@bb29.i A B C D E F)
        (and (or (not H) (not (<= O 0)) (<= D 0))
     (or (not H) (not (<= K 0)) (<= A 0))
     (or (not R) (not H) (= U S))
     (or (not R) (not H) (= S P))
     (or (not R) (not H) (= T Q))
     (or (not R) (not H) (= V T))
     (or (not I) G (not H))
     (or (not H) (= P (store E O M)))
     (or (not H) (= Q (+ 1 C)))
     (or (not H) (= O (+ D N)))
     (or (not H) (= N C))
     (or (not H) (= M (+ L C)))
     (or (not H) (= L (select B K)))
     (or (not H) (= K (+ A J)))
     (or (not H) (= J C))
     (or (not H) (not (<= D 0)))
     (or (not H) (not (<= A 0)))
     (or (not H) (and I H))
     (or (not R) (and R H))
     (= R true)
     (= G (not (<= F C))))
      )
      (main@bb29.i A B V D U F)
    )
  )
)
(assert
  (forall ( (A Int) (B (Array Int Int)) (C Int) (D Int) (E (Array Int Int)) (F Int) (G Bool) (H Bool) (I Bool) (J Int) (K Int) ) 
    (=>
      (and
        (main@bb29.i A B C D E F)
        (and (or (not H) (not I) (= J 0))
     (or (not H) (not I) (= K J))
     (or (not G) (not H) (not I))
     (or (not H) (and H I))
     (= H true)
     (= G (not (<= F C))))
      )
      (main@bb52.i D E K F)
    )
  )
)
(assert
  (forall ( (A Int) (B (Array Int Int)) (C Int) (D Int) (E Bool) (F Bool) (G Bool) (H Int) (I Int) (J Int) (K Int) (L Int) (M Int) (N Bool) (O Bool) (P Int) (Q Bool) (R Int) (S Int) ) 
    (=>
      (and
        (main@bb52.i A B C D)
        (and (or (not O) (not Q) (= R P))
     (or (not O) (not Q) (= S R))
     (or (not F) (not (<= I 0)) (<= A 0))
     (or (not F) (not O) N)
     (or (not Q) (and O Q))
     (or (not O) (= P (+ 1 C)))
     (or (not O) (and F O))
     (or (not F) (= N (= K M)))
     (or (not F) (= M (+ 42 L)))
     (or (not F) (= L C))
     (or (not F) (= K J))
     (or (not F) (= J (select B I)))
     (or (not F) (= I (+ A H)))
     (or (not F) (= H C))
     (or (not F) (not (<= A 0)))
     (or (not F) (and F G))
     (= Q true)
     (= E true)
     (= E (not (<= D C))))
      )
      (main@bb52.i A B S D)
    )
  )
)
(assert
  (forall ( (A Int) (B (Array Int Int)) (C Int) (D Int) (E Bool) (F Bool) (G Bool) (H Int) (I Int) (J Int) (K Int) (L Int) (M Int) (N Bool) (O Bool) (P Bool) (Q Bool) ) 
    (=>
      (and
        (main@bb52.i A B C D)
        (and (or (not F) (not (<= I 0)) (<= A 0))
     (or (not F) (not N) (not O))
     (or (not Q) (and P Q))
     (or (not P) (and O P))
     (or (not O) (and F O))
     (or (not F) (= N (= K M)))
     (or (not F) (= M (+ 42 L)))
     (or (not F) (= K J))
     (or (not F) (= L C))
     (or (not F) (= J (select B I)))
     (or (not F) (= I (+ A H)))
     (or (not F) (= H C))
     (or (not F) (not (<= A 0)))
     (or (not F) (and F G))
     (= Q true)
     (= E true)
     (= E (not (<= D C))))
      )
      false
    )
  )
)

(check-sat)
(exit)
